28 100000
92 27435
93 57547
69 53725
32 89821
17 84540
54 41567
27 77438
60 87240
98 96316
2 48434
77 83250
54 31063
73 88196
74 8168
29 71131
15 20857
12 58559
89 3637
56 82641
68 76075
32 59604
52 72291
39 73832
14 46457
38 94617
82 81213
59 88643
16 31341
